CMD:
./solvers/bin/cadical --plain --no-reduce -t 1600 ./data/cnfs//dspfilters_fastfir_second-p10/dspfilters_fastfir_second-p10.57.cnf

c --- [ banner ] -------------------------------------------------------------
c 
c CaDiCaL SAT Solver
c Copyright (c) 2016-2024
c A. Biere, M. Fleury, N. Froleyks, K. Fazekas, F. Pollitt, T. Faller
c JKU Linz, University of Freiburg, TU Wien
c 
c Version 2.1.3 5296d3d2a9bf48c154ab2acb5e44625776d821bf
c g++ (Gentoo 12.3.1_p20230526 p2) 12.3.1 20230526 -Wall -Wextra -O3 -DNDEBUG
c Sat Aug 9 07:26:21 PDT 2025 Linux cedar2.int.cedar.computecanada.ca 5.14.0-362.24.2.el9_3.x86_64 x86_64
c 
c --- [ limit ] --------------------------------------------------------------
c 
c setting time limit to 1600 seconds real time (due to '-t 1600')
c 
c --- [ parsing input ] ------------------------------------------------------
c 
c reading DIMACS file from './data/cnfs//dspfilters_fastfir_second-p10/dspfilters_fastfir_second-p10.57.cnf'
c opening file to read './data/cnfs//dspfilters_fastfir_second-p10/dspfilters_fastfir_second-p10.57.cnf'
c found 'p cnf 1700403 4966533' header
c parsed 4966533 clauses in 0.84 seconds process time
c 
c --- [ options ] ------------------------------------------------------------
c 
c   --compact=false                (different from default 'true')
c   --decompose=false              (different from default 'true')
c   --deduplicate=false            (different from default 'true')
c   --elim=false                   (different from default 'true')
c   --probe=false                  (different from default 'true')
c   --reduce=false                 (different from default 'true')
c   --subsume=false                (different from default 'true')
c   --ternary=false                (different from default 'true')
c   --transred=false               (different from default 'true')
c   --vivify=false                 (different from default 'true')
c 
c --- [ solving ] ------------------------------------------------------------
c 
c time measured in process time since initialization
c 
c  seconds   reductions  redundant   irredundant
c          MB    restarts       trail         variables
c           level   conflicts       glue            remaining
c 
c *  0.84 757  0 0   0    0    0  0% 0 4827350 1597483 94%
c {  1.47 783  0 0   0    0    0  0% 0 4827350 1597483 94%
c i  1.48 783 98 0   0    8    5  6% 1 4827350 1597478 94%
c i  1.77 784 351 0  13  285  198 12% 4 4827350 1597433 94%
c i  2.75 785 177 0  64  770  621 13% 5 4827350 1597331 94%
c }  3.14 785 140 0  88 1000  838 13% 5 4827350 1597331 94%
c [  3.14 785  0 0  88 1000  838  0% 0 4827350 1597331 94%
c O  3.58 785 18507 0  88 1004  841 73% 3 4827350 1597331 94%
c i  4.79 785 1729 0  88 1672 1454 21% 7 4827350 1596820 94%
c i  5.05 785 1519 0  88 1763 1541 20% 7 4827350 1596145 94%
c i  5.07 785 1487 0  88 1779 1554 20% 7 4827350 1596063 94%
c i  5.23 785 1322 0  88 1876 1624 19% 7 4827350 1595380 94%
c i  5.38 785 1194 0  88 1970 1655 18% 6 4827350 1595251 94%
c ]  6.89 786 579 0  89 3000 2633 16% 7 4827350 1595251 94%
c {  6.89 786 140 0  89 3000 2633 13% 5 4827350 1595251 94%
c F  6.90 786 139 0  90 3005 2638 13% 5 4827350 1595251 94%
c i  6.92 786 138 0  90 3015 2643 13% 5 4827350 1595215 94%
c i  6.92 786 138 0  90 3016 2643 13% 5 4827350 1595067 94%
c i  7.77 786 110 0 155 3328 2869 13% 5 4827350 1595055 94%
c i 12.00 786 50 0 379 5723 4636 13% 6 4827350 1595023 94%
c 
c  seconds   reductions  redundant   irredundant
c          MB    restarts       trail         variables
c           level   conflicts       glue            remaining
c 
c # 12.60 786 48 0 425 6006 4838 13% 6 4827350 1595018 94%
c } 14.96 787 41 0 589 7000 5592 14% 6 4827350 1595018 94%
c [ 14.96 787 579 0 589 7000 5592 16% 7 4827350 1595018 94%
c I 18.69 787 237 0 591 10007 7949 16% 8 4827350 1595018 94%
c i 24.05 788 147 0 593 13155 10223 16% 7 4827350 1593812 94%
c ] 26.76 788 122 0 594 15000 11490 16% 7 4827350 1593812 94%
c { 26.76 788 41 0 594 15000 11490 14% 6 4827350 1593812 94%
c B 26.79 788 41 0 595 15009 11498 14% 6 4827350 1593812 94%
c i 26.88 788 41 0 595 15049 11502 14% 6 4827350 1576355 93%
c i 26.99 788 41 0 595 15073 11518 14% 6 4827350 1576346 93%
c i 28.26 788 36 0 610 16059 11962 14% 6 4827350 1575379 93%
c i 28.81 788 36 0 616 16190 12026 14% 6 4827350 1575376 93%
c i 29.36 788 35 0 623 16419 12143 14% 6 4827350 1571251 92%
c i 29.47 788 35 0 623 16515 12171 14% 6 4827350 1570560 92%
c i 29.57 788 35 0 623 16549 12199 14% 6 4827350 1557751 92%
c i 29.62 788 35 0 623 16563 12209 14% 6 4827350 1557138 92%
c i 29.74 788 34 0 623 16676 12304 14% 6 4827350 1556544 92%
c i 29.90 788 34 0 623 16788 12396 14% 6 4827350 1555197 91%
c i 29.90 788 34 0 623 16789 12396 14% 6 4827350 1554053 91%
c i 29.98 788 34 0 623 16811 12402 14% 6 4827350 1553082 91%
c 
c  seconds   reductions    redundant   irredundant
c          MB    restarts         trail         variables
c           level    conflicts        glue            remaining
c 
c i 30.00 788 34 0 623 16815 12404 14% 6 4827350 1553011 91%
c i 30.00 788 34 0 623 16817 12405 14% 6 4827350 1552557 91%
c i 30.01 788 34 0 623 16818 12405 14% 6 4827350 1531155 90%
c i 30.02 788 34 0 623 16820 12406 14% 6 4827350 1491384 88%
c } 30.04 788 34 0 623 16823 12407 14% 6 4827350 1442274 85%
c 0 30.04 788 34 0 623 16823 12407 14% 6 4827350 1442274 85%
c 
c --- [ result ] -------------------------------------------------------------
c 
s UNSATISFIABLE
c 
c --- [ run-time profiling ] -------------------------------------------------
c 
c process time taken by individual solving procedures
c (percentage relative to process time for solving)
c 
c        29.20  100.00% search
c        15.54   53.22% stable
c        13.03   44.63% unstable
c         0.84    2.88% parse
c         0.63    2.15% lucky
c         0.00    0.00% simplify
c   =================================
c        29.20   97.20% solve
c 
c last line shows process time for solving
c (percentage relative to total process time)
c 
c --- [ statistics ] ---------------------------------------------------------
c 
c chronological:             10449        62.11 %  of conflicts
c conflicts:                 16823       576.13    per second
c decisions:                139509      4777.70    per second
c fixed:                    256342        15.08 %  of all variables
c learned:                   16273        96.73 %  per conflict
c learned_lits:             729518       100.00 %  learned literals
c minimized:                     0         0.00 %  learned literals
c shrunken:                 323349        44.32 %  learned literals
c minishrunken:             139386        19.11 %  learned literals
c otfs:                         60         0.36 %  of conflict
c propagations:          270237094         9.25 M  per second
c rephased:                      5      3364.60    interval
c restarts:                    623        27.00    interval
c stabilizing:                   2        59.44 %  of conflicts
c subsumed:                   3840         0.08 %  of all clauses
c strengthened:                 55         0.00 %  of all clauses
c 
c seconds are measured in process time for solving
c 
c --- [ resources ] ----------------------------------------------------------
c 
c total process time since initialization:        30.04    seconds
c total real time since initialization:           30.17    seconds
c maximum resident set size of process:          786.01    MB
c 
c --- [ shutting down ] ------------------------------------------------------
c 
c exit 20
